benchmarks_vrp/CMT5/fixed_c_size/CMT5_1.vrp
NAME: CMT5_1
TYPE: CVRP
COMMENT: 1291.29 - Cluster Nr.1
DIMENSION: 15
CAPACITY: 200
EDGE_WEIGHT_TYPE: EUC_2D
NODE_COORD_TYPE: TWOD_COORDS
NODE_COORD_SECTION: 
11 53 43
3 49 49
13 55 45
9 55 45
14 47 47
8 55 50
7 53 52
6 49 42
2 50 50
10 55 54
15 57 48
4 52 41
12 35 35
1 58 48
5 51 42
DEPOT_SECTION: 
12
-1
DEMAND_SECTION: 
12 0
3 30
4 15
11 14
6 13
2 15
5 27
9 16
14 13
1 6
15 23
8 10
13 13
7 11
10 26
EOF
