benchmarks_vrp/CMT5/fixed_c_size/CMT5_1.tour
NAME: CMT5_1 solution
TYPE: TOUR
TOUR_SECTION:
12 4 11 13 9 1 15 8 10 7 2 3 14 -1
12 6 5 -1
-1
EOF